73
120
96	8
95	5
94	11
93	11
92	10
91	9
90	15
89	11
88	10
87	11
86	12
85	5
84	11
83	5
82	10
81	15
80	15
79	9
78	5
77	9
76	10
75	11
74	7
73	13
72	12
71	7
70	13
69	11
68	9
67	9
66	9
65	17
64	8
63	12
62	10
61	7
60	16
59	13
58	13
57	11
56	9
55	6
54	11
53	12
52	13
51	13
50	12
49	14
48	14
47	11
46	14
45	9
44	9
43	9
42	5
41	9
40	10
39	10
38	11
37	6
36	9
35	11
34	8
33	8
32	9
31	16
30	7
29	13
28	8
27	10
26	12
25	11
24	6
